p cnf 43 145
-1 -2 -3 0
1 2 -3 0
-1 2 3 0
1 -2 3 0
-3 -4 -5 0
3 4 -5 0
-3 4 5 0
3 -4 5 0
8 6 0
8 7 0
-6 -7 -8 0
-5 -8 -9 0
5 8 -9 0
-5 8 9 0
5 -8 9 0
6 -4 -10 0
-6 4 -10 0
6 4 10 0
-6 -4 10 0
11 9 0
11 -10 0
-9 10 -11 0
12 1 0
12 7 0
-1 -7 -12 0
-15 13 0
-15 14 0
-13 -14 15 0
16 3 0
16 15 0
-3 -15 -16 0
-12 -16 -17 0
12 16 -17 0
-12 16 17 0
12 -16 17 0
-18 -15 0
-18 -2 0
15 2 18 0
21 19 0
21 20 0
-19 -20 -21 0
22 2 0
22 -21 0
-2 21 -22 0
-24 22 0
-24 23 0
-22 -23 24 0
-25 18 0
-25 -24 0
-18 24 25 0
-17 -25 -26 0
17 25 -26 0
-17 25 26 0
17 -25 26 0
27 2 0
27 19 0
-2 -19 -27 0
-28 3 0
-28 -6 0
-3 6 28 0
2 -28 -29 0
-2 28 -29 0
2 28 29 0
-2 -28 29 0
-30 19 0
-30 4 0
-19 -4 30 0
12 30 -31 0
-12 -30 -31 0
12 -30 31 0
-12 30 31 0
-29 -31 -32 0
29 31 -32 0
-29 31 32 0
29 -31 32 0
33 27 0
33 -32 0
-27 32 -33 0
-34 -26 0
-34 -33 0
26 33 34 0
11 34 -35 0
-11 -34 -35 0
11 -34 35 0
-11 34 35 0
15 28 -36 0
-15 -28 -36 0
15 -28 36 0
-15 28 36 0
37 21 0
37 21 0
-21 -37 0
-38 36 0
-38 -37 0
-36 37 38 0
-39 21 0
-39 -21 0
-40 38 0
-40 -39 0
-38 39 40 0
-35 -40 -41 0
35 40 -41 0
-35 40 41 0
35 -40 41 0
19 -1 -42 0
-19 1 -42 0
19 1 42 0
-19 -1 42 0
43 41 0
43 42 0
-41 -42 -43 0
34 -16 9 18 -21 -29 0
-14 -35 5 0
18 -22 -24 0
7 2 -42 37 25 0
-10 29 18 3 0
41 -29 21 20 0
4 27 -34 0
23 -25 0
-41 15 -18 14 0
-33 -23 -41 -37 21 0
27 4 -19 -43 0
6 41 -36 4 0
-26 17 41 -16 -1 0
-9 2 0
-9 -32 -19 0
-35 37 -30 -43 0
40 4 -42 -30 43 0
-26 22 17 4 -9 0
-23 -30 -20 -31 -42 0
32 -1 -39 -11 5 26 0
-14 6 -23 -43 0
-1 4 13 0
13 2 -14 -30 20 -18 0
-15 -38 -43 6 -37 -9 0
-10 35 0
42 2 -11 -36 0
-37 18 8 0
-24 -16 -38 39 0
-17 39 24 18 -15 0
-38 -12 0
-27 40 38 0
-23 -28 14 -29 42 0
-2 26 23 27 28 0
43 0
